30 5
74 11 62 60 63 80 53 85 52 53 42 22 75 43 90 43 72 96 90 79 36 97 95 31 24 35 90 62 75 24
63 30 70 65 86 67 44 80 41 71 23 29 54 64 95 43 89 84 73 76 34 97 96 46 41 44 95 58 77 42
86 20 59 54 84 80 48 81 23 63 18 30 63 54 92 30 74 101 89 79 17 111 102 26 49 35 101 67 69 28
77 29 58 72 57 71 52 74 24 74 36 34 65 59 76 58 74 91 102 106 24 105 81 50 20 48 98 86 84 34
65 15 79 59 58 86 49 79 37 50 27 28 64 52 75 56 76 77 72 87 19 99 108 40 36 40 102 59 67 31
